0 3228 
1 3206 
2 3198 
3 3188 
4 3186 
5 3176 
6 3174 
7 3168 
8 3160 
9 3148 
10 3144 
11 3140 
12 3136 
13 3130 
14 3122 
15 3118 
16 3114 
17 3112 
18 3106 
19 3094 
20 3090 
21 3082 
22 3070 
23 3062 
24 3046 
25 3038 
26 3036 
27 3026 
28 3018 
29 3014 
30 3012 
31 2984 
32 2968 
33 2952 
34 2924 
35 2920 
36 2904 
37 2890 
38 2882 
39 2878 
40 2856 
41 2846 
42 2822 
43 2802 
44 2782 
45 2770 
46 2768 
47 2764 
48 2740 
49 2722 
50 2718 
51 2692 
52 2690 
53 2666 
54 2658 
55 2650 
56 2646 
57 2644 
58 2632 
59 2612 
60 2610 
61 2606 
62 2602 
63 2598 
64 2594 
65 2582 
66 2570 
67 2562 
68 2546 
69 2544 
70 2540 
71 2532 
72 2532 

